Co_Cu_stable_slab                       
   1.00000000000000     
     5.1128150000000003    0.0000000000000000    0.0000000000000000
    -2.5564079999999998    4.4278279999999999    0.0000000000000000
     0.0000000000000000    0.0000000000000000   18.3491938412470006
   Co   Cu
     4    16
Selective dynamics
Direct
  0.3333684697088088  0.1667055923539635  0.3406849080763479   T   T   T
  0.3333551292973524  0.6666535777884732  0.3406962394043092   T   T   T
  0.8333253981117679  0.1666672717457303  0.3406854621156938   T   T   T
  0.8332908134539565  0.6666368584657505  0.3406816741453227   T   T   T
  0.3333330000000032  0.1666669999999968  0.0000000000000000   F   F   F
  0.3333330000000032  0.6666669999999968  0.0000000000000000   F   F   F
  0.8333330000000032  0.1666669999999968  0.0000000000000000   F   F   F
  0.8333330000000032  0.6666669999999968  0.0000000000000000   F   F   F
  0.5000000000000000  0.5000000000000000  0.1137539823859726   F   F   F
  0.5000000000000000  0.0000000000000000  0.1137539823859726   F   F   F
  0.0000000000000000  0.5000000000000000  0.1137539823859726   F   F   F
  0.0000000000000000  0.0000000000000000  0.1137539823859726   F   F   F
  0.1667266171690827  0.3333464671595863  0.2277757872360056   T   T   T
  0.1666598513101505  0.8333387988432008  0.2277955826557303   T   T   T
  0.6666266492663837  0.3333682617039173  0.2277975311343923   T   T   T
  0.6666504482659761  0.8332700218694455  0.2277758809393831   T   T   T
  0.5000214598371215  0.4999890308344845  0.4529138341861554   T   T   T
  0.4999889009118519  0.0000198190725555  0.4529226640129806   T   T   T
  0.9999757788589605  0.5000126436891676  0.4529052362182284   T   T   T
  0.0000113735459948  0.9999834438477393  0.4528432950600845   T   T   T
 
  0.00000000E+00  0.00000000E+00  0.00000000E+00
  0.00000000E+00  0.00000000E+00  0.00000000E+00
  0.00000000E+00  0.00000000E+00  0.00000000E+00
  0.00000000E+00  0.00000000E+00  0.00000000E+00
  0.00000000E+00  0.00000000E+00  0.00000000E+00
  0.00000000E+00  0.00000000E+00  0.00000000E+00
  0.00000000E+00  0.00000000E+00  0.00000000E+00
  0.00000000E+00  0.00000000E+00  0.00000000E+00
  0.00000000E+00  0.00000000E+00  0.00000000E+00
  0.00000000E+00  0.00000000E+00  0.00000000E+00
  0.00000000E+00  0.00000000E+00  0.00000000E+00
  0.00000000E+00  0.00000000E+00  0.00000000E+00
  0.00000000E+00  0.00000000E+00  0.00000000E+00
  0.00000000E+00  0.00000000E+00  0.00000000E+00
  0.00000000E+00  0.00000000E+00  0.00000000E+00
  0.00000000E+00  0.00000000E+00  0.00000000E+00
  0.00000000E+00  0.00000000E+00  0.00000000E+00
  0.00000000E+00  0.00000000E+00  0.00000000E+00
  0.00000000E+00  0.00000000E+00  0.00000000E+00
  0.00000000E+00  0.00000000E+00  0.00000000E+00
