Co_Cu_stable_slab                       
   1.00000000000000     
     5.1128150000000003    0.0000000000000000    0.0000000000000000
    -2.5564079999999998    4.4278279999999999    0.0000000000000000
     0.0000000000000000    0.0000000000000000   18.3491938412470006
   Co   Cu
     4    16
Selective dynamics
Direct
  0.3333684697088097  0.1667055923539671  0.3406849080763458   T   T   T
  0.3333551292973509  0.6666535777884735  0.3406962394043094   T   T   T
  0.8333253981117689  0.1666672717457296  0.3406854621156936   T   T   T
  0.8332908134539573  0.6666368584657523  0.3406816741453194   T   T   T
  0.3333330000000032  0.1666669999999968  0.0000000000000000   F   F   F
  0.3333330000000032  0.6666669999999968  0.0000000000000000   F   F   F
  0.8333330000000032  0.1666669999999968  0.0000000000000000   F   F   F
  0.8333330000000032  0.6666669999999968  0.0000000000000000   F   F   F
  0.5000000000000000  0.5000000000000000  0.1137539823859726   F   F   F
  0.5000000000000000  0.0000000000000000  0.1137539823859726   F   F   F
  0.0000000000000000  0.5000000000000000  0.1137539823859726   F   F   F
  0.0000000000000000  0.0000000000000000  0.1137539823859726   F   F   F
  0.1667266171690801  0.3333464671595828  0.2277757872360061   T   T   T
  0.1666598513101475  0.8333387988432037  0.2277955826557271   T   T   T
  0.6666266492663847  0.3333682617039189  0.2277975311343950   T   T   T
  0.6666504482659770  0.8332700218694429  0.2277758809393843   T   T   T
  0.5000214598371201  0.4999890308344858  0.4529138341861545   T   T   T
  0.4999889009118512  0.0000198190725523  0.4529226640129835   T   T   T
 -0.0000242211410425  0.5000126436891646  0.4529052362182267   T   T   T
  0.0000113735459920 -0.0000165561522632  0.4528432950600879   T   T   T
 
  0.00000000E+00  0.00000000E+00  0.00000000E+00
  0.00000000E+00  0.00000000E+00  0.00000000E+00
  0.00000000E+00  0.00000000E+00  0.00000000E+00
  0.00000000E+00  0.00000000E+00  0.00000000E+00
  0.00000000E+00  0.00000000E+00  0.00000000E+00
  0.00000000E+00  0.00000000E+00  0.00000000E+00
  0.00000000E+00  0.00000000E+00  0.00000000E+00
  0.00000000E+00  0.00000000E+00  0.00000000E+00
  0.00000000E+00  0.00000000E+00  0.00000000E+00
  0.00000000E+00  0.00000000E+00  0.00000000E+00
  0.00000000E+00  0.00000000E+00  0.00000000E+00
  0.00000000E+00  0.00000000E+00  0.00000000E+00
  0.00000000E+00  0.00000000E+00  0.00000000E+00
  0.00000000E+00  0.00000000E+00  0.00000000E+00
  0.00000000E+00  0.00000000E+00  0.00000000E+00
  0.00000000E+00  0.00000000E+00  0.00000000E+00
  0.00000000E+00  0.00000000E+00  0.00000000E+00
  0.00000000E+00  0.00000000E+00  0.00000000E+00
  0.00000000E+00  0.00000000E+00  0.00000000E+00
  0.00000000E+00  0.00000000E+00  0.00000000E+00
